1078.09
0 68 6 51 33 73 1 43 63 21 36 71 69 0 
0 45 29 48 47 5 37 20 70 60 15 57 0 
0 27 13 54 14 53 65 66 31 0 
0 75 4 12 40 32 9 39 0 
0 26 17 3 44 16 49 72 58 10 38 0 
0 62 22 61 24 18 50 25 55 11 0 
0 67 34 46 8 35 7 19 52 59 0 
0 30 74 28 2 42 41 56 23 64 0 
